21
Step 250 - MD Simulation
C 9.974822 10.005833 9.985999
H 10.610565 10.678224 10.728656
H 10.519414 9.377597 9.405808
H 9.245338 10.650793 9.292135
H 9.406063 9.329317 10.620445
O 13.005442 10.006180 10.008440
H 13.771973 10.672266 9.898883
H 12.184620 10.514265 9.987630
O 14.836177 9.993516 10.011195
C 15.995520 9.956862 9.980073
O 17.149360 9.994847 9.972987
N 10.023123 12.989867 10.004599
H 10.945195 13.124065 9.519021
H 9.398363 14.053736 9.603607
H 9.466110 12.273592 9.534884
H 11.397813 13.009055 9.972632
C 12.433038 13.001749 9.978174
C 13.633926 12.969823 9.999970
H 14.467517 13.148285 10.116236
H 15.444594 13.004598 10.014699
Cl 16.639916 13.017753 10.005652
