21
Step 0 - MD Simulation
C 10.006967 10.006679 9.993464
H 10.623353 10.633569 10.621558
H 10.638452 9.366656 9.376829
H 9.377433 10.619729 9.375187
H 9.364921 9.375457 10.619464
O 13.005828 10.003113 9.997452
H 13.762875 10.594741 9.998487
H 12.247059 10.584659 9.990738
O 14.834404 10.001415 9.994025
C 15.999993 9.991850 9.992766
O 17.150966 9.999305 9.993797
N 10.006692 12.999772 9.990195
H 10.940109 12.994477 9.622920
H 9.538333 13.813422 9.633791
H 9.522883 12.185303 9.619276
H 11.333464 12.992835 10.000618
C 12.407569 12.991964 9.999348
C 13.602967 13.008943 9.991103
H 14.662531 13.002772 10.005335
H 15.372090 12.993703 9.999608
Cl 16.640526 13.005694 9.998328
