21
Step 160 - MD Simulation
C 9.986647 10.005568 9.988480
H 10.610362 10.657136 10.684848
H 10.557422 9.378924 9.400455
H 9.298025 10.634723 9.326915
H 9.395959 9.351142 10.615133
O 13.005431 10.005560 10.004404
H 13.762328 10.638484 9.935277
H 12.214256 10.534787 9.989033
O 14.836077 9.996385 10.005038
C 15.997819 9.969703 9.984637
O 17.149411 9.996408 9.980448
N 10.017268 12.993088 9.998891
H 10.949488 13.076584 9.562597
H 9.452976 13.960203 9.617298
H 9.490873 12.248224 9.568729
H 11.368545 13.004302 9.976577
C 12.424607 12.998240 9.985746
C 13.623428 12.983963 9.996878
H 14.534073 13.093916 10.074811
H 15.410611 13.001977 10.010401
Cl 16.639879 13.013434 10.002996
