21
Step 30 - MD Simulation
C 10.003214 10.006347 9.992452
H 10.619580 10.636689 10.632063
H 10.621913 9.370379 9.382614
H 9.363942 10.621211 9.367460
H 9.372098 9.372274 10.617319
O 13.005748 10.003701 9.998743
H 13.760953 10.601381 9.986749
H 12.242721 10.573952 9.990485
O 14.834862 10.000476 9.996095
C 15.999800 9.987726 9.991250
O 17.150525 9.998755 9.991283
N 10.008684 12.998469 9.991675
H 10.943498 13.009811 9.613275
H 9.523495 13.839024 9.631525
H 9.517993 12.198853 9.610677
H 11.338448 12.995156 9.994449
C 12.410964 12.993141 9.996790
C 13.606895 13.004277 9.992232
H 14.640115 13.019456 10.018047
H 15.376969 12.995298 10.001760
Cl 16.640340 13.007143 9.999202
