21
Step 110 - MD Simulation
C 9.993088 10.005703 9.989959
H 10.612582 10.647927 10.663136
H 10.580855 9.377132 9.395027
H 9.324807 10.628148 9.343899
H 9.388120 9.360703 10.614569
O 13.005521 10.004989 10.002196
H 13.760022 10.622586 9.955179
H 12.227101 10.548493 9.989647
O 14.835768 9.997963 10.001606
C 15.998787 9.976690 9.987172
O 17.149692 9.997305 9.984602
N 10.013972 12.995082 9.995972
H 10.948894 13.050752 9.583808
H 9.481312 13.911653 9.623583
H 9.502473 12.230991 9.585755
H 11.355284 13.001033 9.981719
C 12.419560 12.996283 9.989974
C 13.617254 12.991792 9.995115
H 14.575118 13.064470 10.052373
H 15.395312 12.999584 10.007220
Cl 16.639992 13.011021 10.001539
