21
Step 190 - MD Simulation
C 9.982735 10.005586 9.987626
H 10.609816 10.663540 10.698753
H 10.544183 9.379144 9.402857
H 9.281083 10.639483 9.315924
H 9.399889 9.344540 10.616274
O 13.005406 10.005831 10.005733
H 13.764744 10.649008 9.923272
H 12.205299 10.527363 9.988585
O 14.836177 9.995429 10.007096
C 15.997129 9.965459 9.983122
O 17.149323 9.995881 9.977951
N 10.019233 12.991966 10.000737
H 10.948800 13.092267 9.548833
H 9.435278 13.990497 9.613069
H 9.483211 12.257479 9.557946
H 11.377512 13.006061 9.974493
C 12.427512 12.999399 9.983220
C 13.627020 12.979265 9.997924
H 14.510846 13.111875 10.088475
H 15.421258 13.003250 10.012119
Cl 16.639855 13.014878 10.003880
