21
Step 60 - MD Simulation
C 9.999437 10.006046 9.991496
H 10.616451 10.640422 10.643181
H 10.605983 9.373471 9.387784
H 9.349828 10.623322 9.359142
H 9.378636 9.368476 10.615775
O 13.005661 10.004238 10.000031
H 13.759877 10.608752 9.974980
H 12.237530 10.563873 9.990195
O 14.835260 9.999538 9.998166
C 15.999502 9.983595 9.989725
O 17.150155 9.998209 9.988776
N 10.010667 12.997178 9.993226
H 10.946143 13.025133 9.602854
H 9.508114 13.865503 9.628857
H 9.512585 12.211583 9.601672
H 11.344141 12.997444 9.989026
C 12.414261 12.994324 9.994231
C 13.610844 12.999604 9.993326
H 14.616609 13.036224 10.030814
H 15.382946 12.996919 10.003879
Cl 16.640185 13.008596 10.000078
