21
Step 150 - MD Simulation
C 9.987941 10.005577 9.988769
H 10.610675 10.655153 10.680362
H 10.561979 9.378713 9.399513
H 9.303533 10.633272 9.330454
H 9.394520 9.353194 10.614879
O 13.005446 10.005459 10.003960
H 13.761697 10.635141 9.939266
H 12.217023 10.537401 9.989173
O 14.836029 9.996701 10.004351
C 15.998030 9.971112 9.985140
O 17.149454 9.996587 9.981279
N 10.016613 12.993476 9.998291
H 10.949548 13.071393 9.567013
H 9.458757 13.950307 9.618641
H 9.493306 12.244955 9.572227
H 11.365729 13.003677 9.977432
C 12.423620 12.997849 9.986590
C 13.622214 12.985532 9.996526
H 14.542050 13.087957 10.070294
H 15.407307 13.001521 10.009787
Cl 16.639895 13.012952 10.002702
