21
Step 120 - MD Simulation
C 9.991805 10.005659 9.989657
H 10.612005 10.649625 10.667333
H 10.576041 9.377643 9.396255
H 9.319595 10.629315 9.340639
H 9.389815 9.358931 10.614539
O 13.005500 10.005116 10.002633
H 13.760315 10.625595 9.951211
H 12.224728 10.545616 9.989533
O 14.835842 9.997649 10.002292
C 15.998614 9.975304 9.986662
O 17.149620 9.997124 9.983771
N 10.014634 12.994674 9.996540
H 10.949188 13.055902 9.579737
H 9.475763 13.921172 9.622411
H 9.500273 12.234615 9.582438
H 11.357766 13.001714 9.980519
C 12.420590 12.996674 9.989125
C 13.618510 12.990230 9.995470
H 14.566684 13.070288 10.056819
H 15.398136 13.000090 10.007880
Cl 16.639962 13.011505 10.001829
