21
Step 200 - MD Simulation
C 9.981427 10.005608 9.987349
H 10.609764 10.665817 10.703540
H 10.539895 9.379070 9.403515
H 9.275294 10.641207 9.312129
H 9.401069 9.342182 10.616795
O 13.005404 10.005906 10.006179
H 13.765729 10.652681 9.919244
H 12.202106 10.525024 9.988437
O 14.836196 9.995108 10.007780
C 15.996881 9.964037 9.982618
O 17.149313 9.995707 9.977119
N 10.019885 12.991602 10.001366
H 10.948402 13.097526 9.544071
H 9.429264 14.000788 9.611588
H 9.480532 12.260385 9.554243
H 11.380689 13.006609 9.973971
C 12.428460 12.999786 9.982380
C 13.628199 12.977697 9.998270
H 14.503331 13.117900 10.093059
H 15.425048 13.003629 10.012655
Cl 16.639855 13.015358 10.004175
