21
Step 140 - MD Simulation
C 9.989230 10.005595 9.989060
H 10.611055 10.653243 10.675946
H 10.566602 9.378429 9.398500
H 9.308958 10.631882 9.333921
H 9.393018 9.355181 10.614696
O 13.005463 10.005351 10.003516
H 13.761154 10.631878 9.943253
H 12.219686 10.540072 9.989299
O 14.835973 9.997018 10.003665
C 15.998235 9.972516 9.985645
O 17.149503 9.996767 9.982110
N 10.015955 12.993870 9.997699
H 10.949514 13.066221 9.571340
H 9.464482 13.940502 9.619943
H 9.495689 12.241600 9.575680
H 11.362989 13.003039 9.978369
C 12.422620 12.997457 9.987435
C 13.620988 12.987099 9.996175
H 14.550145 13.082030 10.065791
H 15.404127 13.001055 10.009161
Cl 16.639914 13.012471 10.002409
