21
Step 90 - MD Simulation
C 9.995638 10.005815 9.990566
H 10.613939 10.644730 10.654940
H 10.590685 9.375883 9.392349
H 9.335037 10.626020 9.350200
H 9.384537 9.364037 10.614836
O 13.005573 10.004711 10.001324
H 13.759695 10.616812 9.963117
H 12.231556 10.554447 9.989871
O 14.835591 9.998594 10.000233
C 15.999103 9.979457 9.988195
O 17.149856 9.997665 9.986268
N 10.012648 12.995909 9.994853
H 10.948056 13.040494 9.591682
H 9.492220 13.892901 9.625813
H 9.506689 12.223489 9.592257
H 11.350567 12.999636 9.984391
C 12.417467 12.995498 9.991675
C 13.614716 12.994918 9.994403
H 14.592037 13.053070 10.043659
H 15.390008 12.998527 10.005898
Cl 16.640061 13.010050 10.000956
