21
Step 10 - MD Simulation
C 10.005717 10.006574 9.993121
H 10.622026 10.634546 10.624993
H 10.632876 9.367972 9.378825
H 9.373012 10.620151 9.372677
H 9.367386 9.374466 10.618686
O 13.005803 10.003317 9.997882
H 13.762146 10.596875 9.994574
H 12.245711 10.581014 9.990657
O 14.834564 10.001101 9.994715
C 15.999941 9.990479 9.992261
O 17.150812 9.999123 9.992958
N 10.007356 12.999338 9.990682
H 10.941323 12.999590 9.619790
H 9.533441 13.821855 9.633080
H 9.521313 12.189911 9.616458
H 11.335042 12.993607 9.998476
C 12.408711 12.992359 9.998496
C 13.604266 13.007386 9.991482
H 14.655180 13.008335 10.009576
H 15.373592 12.994235 10.000329
Cl 16.640460 13.006177 9.998619
