21
Step 170 - MD Simulation
C 9.985347 10.005566 9.988193
H 10.610114 10.659199 10.689407
H 10.552941 9.379073 9.401329
H 9.292447 10.636241 9.323311
H 9.397335 9.349019 10.615450
O 13.005420 10.005657 10.004846
H 13.763047 10.641907 9.931286
H 12.211378 10.532243 9.988886
O 14.836118 9.996068 10.005725
C 15.997598 9.968291 9.984131
O 17.149374 9.996231 9.979617
N 10.017923 12.992707 9.999499
H 10.949342 13.081794 9.558096
H 9.447134 13.970199 9.615925
H 9.488382 12.251397 9.565186
H 11.371442 13.004908 9.975802
C 12.425584 12.998627 9.984903
C 13.624634 12.982396 9.997228
H 14.526216 13.099888 10.079346
H 15.414037 13.002419 10.010992
Cl 16.639868 13.013915 10.003291
