21
Step 210 - MD Simulation
C 9.980114 10.005638 9.987075
H 10.609780 10.668167 10.708415
H 10.535665 9.378926 9.404111
H 9.269440 10.643001 9.308266
H 9.402193 9.339753 10.617387
O 13.005405 10.005976 10.006625
H 13.766805 10.656436 9.915200
H 12.198815 10.522751 9.988280
O 14.836209 9.994788 10.008464
C 15.996624 9.962612 9.982110
O 17.149309 9.995534 9.976291
N 10.020535 12.991244 10.002001
H 10.947920 13.102801 9.539226
H 9.423194 14.011184 9.610066
H 9.477789 12.263203 9.550485
H 11.383950 13.007136 9.973534
C 12.429398 13.000173 9.981541
C 13.629367 12.976125 9.998613
H 14.495933 13.123937 10.097660
H 15.428945 13.003962 10.013159
Cl 16.639860 13.015838 10.004470
