21
Step 80 - MD Simulation
C 9.996906 10.005886 9.990874
H 10.614712 10.643233 10.650947
H 10.595714 9.375148 9.390900
H 9.340047 10.625051 9.353249
H 9.382638 9.365593 10.615079
O 13.005602 10.004562 10.000891
H 13.759658 10.614044 9.967077
H 12.233641 10.557518 9.989985
O 14.835490 9.998909 9.999546
C 15.999247 9.980839 9.988705
O 17.149949 9.997846 9.987102
N 10.011987 12.996329 9.994302
H 10.947503 13.035371 9.595490
H 9.497573 13.883664 9.626870
H 9.508712 12.219610 9.595441
H 11.348337 12.998922 9.985852
C 12.416409 12.995106 9.992527
C 13.613434 12.996482 9.994044
H 14.600344 13.047441 10.039365
H 15.387533 12.997997 10.005234
Cl 16.640099 13.009565 10.000663
