21
Step 220 - MD Simulation
C 9.978798 10.005674 9.986802
H 10.609867 10.670585 10.713361
H 10.531499 9.378710 9.404635
H 9.263523 10.644860 9.304333
H 9.403255 9.337259 10.618053
O 13.005408 10.006038 10.007074
H 13.767969 10.660271 9.911140
H 12.195425 10.520539 9.988118
O 14.836213 9.994469 10.009148
C 15.996358 9.961181 9.981603
O 17.149310 9.995362 9.975465
N 10.021184 12.990890 10.002641
H 10.947358 13.108094 9.534296
H 9.417066 14.021681 9.608505
H 9.474971 12.265936 9.546668
H 11.387292 13.007646 9.973182
C 12.430323 13.000560 9.980702
C 13.630524 12.974552 9.998955
H 14.488658 13.129986 10.102279
H 15.432935 13.004232 10.013609
Cl 16.639869 13.016318 10.004766
