21
Step 180 - MD Simulation
C 9.984043 10.005571 9.987908
H 10.609933 10.661335 10.694044
H 10.548530 9.379149 9.402129
H 9.286801 10.637830 9.319647
H 9.398645 9.346820 10.615829
O 13.005412 10.005748 10.005289
H 13.763852 10.645415 9.927285
H 12.208391 10.529768 9.988738
O 14.836151 9.995749 10.006411
C 15.997368 9.966876 9.983626
O 17.149345 9.996057 9.978783
N 10.018578 12.992334 10.000114
H 10.949112 13.087020 9.553505
H 9.441232 13.980300 9.614517
H 9.485826 12.254481 9.561593
H 11.374431 13.005493 9.975106
C 12.426553 12.999013 9.984060
C 13.625831 12.980830 9.997576
H 14.518474 13.105871 10.083903
H 15.417588 13.002845 10.011561
Cl 16.639860 13.014397 10.003585
