21
Step 100 - MD Simulation
C 9.994366 10.005755 9.990261
H 10.613228 10.646293 10.659003
H 10.585735 9.376545 9.393724
H 9.329953 10.627051 9.347084
H 9.386362 9.362405 10.614669
O 13.005545 10.004854 10.001760
H 13.759817 10.619655 9.959147
H 12.229374 10.551438 9.989757
O 14.835684 9.998278 10.000920
C 15.998950 9.978075 9.987684
O 17.149771 9.997485 9.985434
N 10.013310 12.995494 9.995411
H 10.948516 13.045616 9.587786
H 9.486798 13.902230 9.624715
H 9.504610 12.227279 9.589027
H 11.352884 13.000337 9.983011
C 12.418518 12.995890 9.990824
C 13.615990 12.993354 9.994759
H 14.583611 13.058730 10.047986
H 15.392602 12.999060 10.006560
Cl 16.640025 13.010536 10.001248
