21
Step 130 - MD Simulation
C 9.990518 10.005623 9.989357
H 10.611494 10.651398 10.671605
H 10.571289 9.378075 9.397412
H 9.314311 10.630559 9.337315
H 9.391449 9.357094 10.614583
O 13.005480 10.005238 10.003074
H 13.760691 10.628694 9.947236
H 12.222254 10.542810 9.989413
O 14.835910 9.997334 10.002979
C 15.998430 9.973913 9.986153
O 17.149557 9.996946 9.982940
N 10.015295 12.994269 9.997117
H 10.949396 13.061060 9.575583
H 9.470151 13.930790 9.621198
H 9.498015 12.238151 9.579081
H 11.360333 13.002382 9.979405
C 12.421610 12.997066 9.988279
C 13.619754 12.988665 9.995824
H 14.558356 13.076142 10.061296
H 15.401072 13.000576 10.008527
Cl 16.639936 13.011988 10.002118
