21
Step 20 - MD Simulation
C 10.004467 10.006461 9.992782
H 10.620770 10.635582 10.628497
H 10.627362 9.369213 9.380753
H 9.368515 10.620645 9.370103
H 9.369778 9.373405 10.617968
O 13.005777 10.003512 9.998312
H 13.761505 10.599087 9.990662
H 12.244264 10.577446 9.990575
O 14.834716 10.000789 9.995405
C 15.999877 9.989103 9.991756
O 17.150665 9.998939 9.992119
N 10.008020 12.998903 9.991176
H 10.942451 13.004705 9.616576
H 9.528496 13.830390 9.632325
H 9.519680 12.194426 9.613592
H 11.336707 12.994379 9.996419
C 12.409843 12.992749 9.997643
C 13.605575 13.005831 9.991857
H 14.647711 13.013897 10.013814
H 15.375220 12.994762 10.001046
Cl 16.640399 13.006660 9.998910
