21
Step 70 - MD Simulation
C 9.998173 10.005962 9.991185
H 10.615550 10.641799 10.647026
H 10.600814 9.374351 9.389377
H 9.344975 10.624151 9.356230
H 9.380674 9.367071 10.615393
O 13.005632 10.004404 10.000460
H 13.759718 10.611361 9.971031
H 12.235630 10.560659 9.990092
O 14.835379 9.999224 9.998857
C 15.999379 9.982217 9.989215
O 17.150048 9.998028 9.987939
N 10.011326 12.996752 9.993760
H 10.946862 13.030253 9.599210
H 9.502869 13.874533 9.627886
H 9.510677 12.215642 9.598583
H 11.346197 12.998189 9.987396
C 12.415339 12.994716 9.993378
C 13.612144 12.998044 9.993686
H 14.608532 13.041826 10.035086
H 15.385178 12.997462 10.004564
Cl 16.640140 13.009081 10.000370
