21
Step 230 - MD Simulation
C 9.977478 10.005718 9.986532
H 10.610027 10.673070 10.718384
H 10.527405 9.378418 9.405094
H 9.257532 10.646773 9.300339
H 9.404251 9.334688 10.618790
O 13.005415 10.006092 10.007527
H 13.769221 10.664183 9.907073
H 12.191932 10.518388 9.987960
O 14.836209 9.994151 10.009830
C 15.996085 9.959748 9.981096
O 17.149317 9.995189 9.974639
N 10.021832 12.990544 10.003289
H 10.946716 13.113403 9.529287
H 9.410883 14.032273 9.606910
H 9.472090 12.268580 9.542799
H 11.390721 13.008138 9.972916
C 12.431238 13.000950 9.979861
C 13.631669 12.972977 9.999295
H 14.481497 13.136059 10.106920
H 15.436925 13.004409 10.013998
Cl 16.639881 13.016797 10.005061
