21
Step 240 - MD Simulation
C 9.976152 10.005771 9.986263
H 10.610259 10.675615 10.723483
H 10.523381 9.378043 9.405485
H 9.251474 10.648748 9.296276
H 9.405188 9.332036 10.619582
O 13.005426 10.006140 10.007983
H 13.770556 10.668182 9.902983
H 12.188323 10.516293 9.987799
O 14.836197 9.993834 10.010513
C 15.995806 9.958309 9.980585
O 17.149335 9.995018 9.973813
N 10.022480 12.990203 10.003942
H 10.945997 13.118723 9.524196
H 9.404652 14.042958 9.605276
H 9.469134 12.271129 9.538871
H 11.394226 13.008607 9.972730
C 12.432142 13.001345 9.979020
C 13.632803 12.971399 9.999633
H 14.474449 13.142159 10.111576
H 15.440820 13.004521 10.014356
Cl 16.639896 13.017275 10.005356
