21
Step 50 - MD Simulation
C 10.000699 10.006139 9.991811
H 10.617420 10.639113 10.639407
H 10.611225 9.372510 9.386129
H 9.354604 10.622554 9.361981
H 9.376527 9.369810 10.616226
O 13.005689 10.004063 9.999602
H 13.760134 10.606215 9.978918
H 12.239347 10.567162 9.990290
O 14.835134 9.999851 9.997475
C 15.999612 9.984973 9.990234
O 17.150271 9.998390 9.989612
N 10.010008 12.997605 9.992700
H 10.945347 13.020020 9.606410
H 9.513298 13.856577 9.629791
H 9.514444 12.207432 9.604717
H 11.342165 12.996687 9.990746
C 12.413173 12.993932 9.995084
C 13.609536 13.001162 9.992964
H 14.624566 13.030626 10.026544
H 15.380833 12.996377 10.003178
Cl 16.640234 13.008112 9.999787
