21
Step 40 - MD Simulation
C 10.001959 10.006238 9.992128
H 10.618464 10.637868 10.635699
H 10.616535 9.371478 9.384401
H 9.359307 10.621850 9.364752
H 9.374347 9.371075 10.616742
O 13.005719 10.003884 9.999172
H 13.760493 10.603754 9.982838
H 12.241079 10.570520 9.990389
O 14.835002 10.000164 9.996785
C 15.999712 9.986350 9.990742
O 17.150394 9.998572 9.990448
N 10.009347 12.998037 9.992183
H 10.944464 13.014916 9.609883
H 9.518427 13.847752 9.630680
H 9.516248 12.203191 9.607718
H 11.340266 12.995926 9.992558
C 12.412075 12.993536 9.995937
C 13.608220 13.002720 9.992601
H 14.632401 13.025031 10.022289
H 15.378840 12.995839 10.002472
Cl 16.640285 13.007627 9.999494
