21
Step 250 - MD Simulation
C 10.003974 9.986009 9.998618
H 10.685288 10.624430 10.495031
H 10.827217 9.270470 9.406251
H 9.162845 10.492260 9.375452
H 9.376316 9.348657 10.751482
O 13.018797 10.004063 10.013082
H 13.767092 10.581953 9.901405
H 12.150448 10.614688 9.967293
O 14.842262 10.017956 10.041996
C 16.007196 10.014090 10.024780
O 17.179860 9.989631 9.977765
N 10.045117 13.019402 9.983277
H 10.900711 12.920487 9.518178
H 9.476595 14.014807 9.583993
H 9.445565 12.209109 9.613306
H 11.359736 12.937340 10.060950
C 12.370051 12.968813 10.023179
C 13.547865 12.993971 9.994180
H 14.574777 12.959789 9.963192
H 15.536202 13.034251 10.039880
Cl 16.622362 13.001955 9.982945
