21
Step 0 - MD Simulation
C 9.995211 9.999150 10.008867
H 10.621193 10.638986 10.627414
H 10.627115 9.365481 9.366736
H 9.361222 10.620568 9.364790
H 9.375534 9.376067 10.625630
O 13.007827 9.993330 10.007582
H 13.763857 10.579543 10.007501
H 12.236054 10.592282 10.001903
O 14.846901 10.006902 10.009076
C 16.008504 10.005672 10.001478
O 17.160270 9.998212 9.992082
N 10.005606 12.999546 10.000154
H 10.929594 12.994964 9.632745
H 9.538070 13.804059 9.633551
H 9.533260 12.180317 9.618920
H 11.335198 13.002770 9.996110
C 12.395624 12.999587 10.001819
C 13.595911 13.003126 9.991758
H 14.669201 12.994739 9.993998
H 15.373627 12.997260 10.006587
Cl 16.627550 12.996012 9.994897
