21
Step 30 - MD Simulation
C 9.996320 9.997913 10.008167
H 10.624113 10.632588 10.607323
H 10.646312 9.358588 9.375802
H 9.342433 10.600986 9.370637
H 9.380122 9.377282 10.635950
O 13.009360 9.995058 10.008227
H 13.758133 10.574764 9.995144
H 12.232159 10.590190 9.997920
O 14.846844 10.008237 10.013009
C 16.008740 10.006549 10.004100
O 17.162128 9.997168 9.990381
N 10.010596 13.001812 9.997653
H 10.931682 12.986198 9.624708
H 9.534360 13.823050 9.630385
H 9.526737 12.190068 9.621100
H 11.332616 12.994830 9.998201
C 12.393230 12.995866 10.004340
C 13.589500 13.001976 9.992080
H 14.664777 12.991122 9.990933
H 15.386196 13.001286 10.009895
Cl 16.626703 12.996718 9.993470
