21
Step 230 - MD Simulation
C 10.003409 9.987352 9.999757
H 10.676734 10.622318 10.502834
H 10.807733 9.281266 9.405930
H 9.182410 10.499812 9.377688
H 9.379321 9.353946 10.737993
O 13.018106 10.003497 10.012610
H 13.762543 10.578271 9.910333
H 12.161756 10.609646 9.970259
O 14.842980 10.017085 10.039344
C 16.007180 10.013295 10.022759
O 17.177948 9.990307 9.978920
N 10.042186 13.017675 9.984340
H 10.906642 12.926604 9.531582
H 9.484068 13.993536 9.589863
H 9.455523 12.211114 9.615722
H 11.354064 12.942469 10.051643
C 12.372540 12.971238 10.021472
C 13.551250 12.994647 9.994010
H 14.583740 12.963414 9.966564
H 15.521347 13.030582 10.036252
Cl 16.622620 13.001479 9.983911
