21
Step 50 - MD Simulation
C 9.997090 9.997063 10.007600
H 10.626759 10.629017 10.594587
H 10.659822 9.353341 9.381137
H 9.329166 10.588627 9.373820
H 9.382474 9.377403 10.643547
O 13.010364 9.996139 10.008658
H 13.755246 10.572364 9.986854
H 12.228592 10.589536 9.995264
O 14.846733 10.009124 10.015626
C 16.008796 10.007139 10.005849
O 17.163442 9.996474 9.989241
N 10.013899 13.003318 9.996063
H 10.932202 12.980346 9.618533
H 9.531319 13.836645 9.627853
H 9.521813 12.195589 9.622132
H 11.331792 12.989548 10.000433
C 12.391536 12.993385 10.006025
C 13.585325 13.001212 9.992288
H 14.660624 12.988701 9.988870
H 15.395760 13.003981 10.012138
Cl 16.626169 12.997187 9.992522
