21
Step 240 - MD Simulation
C 10.003696 9.986688 9.999194
H 10.680934 10.623304 10.498868
H 10.817394 9.275934 9.406150
H 9.172717 10.495984 9.376630
H 9.377884 9.351367 10.744657
O 13.018456 10.003786 10.012846
H 13.764724 10.580034 9.905884
H 12.156200 10.612100 9.968783
O 14.842628 10.017520 10.040670
C 16.007179 10.013691 10.023769
O 17.178897 9.989968 9.978343
N 10.043658 13.018535 9.983802
H 10.903744 12.923552 9.524979
H 9.480386 14.004076 9.586971
H 9.450617 12.210199 9.614560
H 11.356824 12.939908 10.056203
C 12.371293 12.970021 10.022331
C 13.549548 12.994306 9.994094
H 14.579140 12.961610 9.964894
H 15.528897 13.032408 10.038053
Cl 16.622488 13.001717 9.983428
