21
Step 70 - MD Simulation
C 9.997865 9.996187 10.006958
H 10.629979 10.626009 10.582362
H 10.673903 9.347554 9.385927
H 9.315328 10.576795 9.376419
H 9.384302 9.376995 10.651714
O 13.011346 9.997167 10.009086
H 13.753086 10.570574 9.978539
H 12.224239 10.589466 9.992593
O 14.846559 10.010015 10.018245
C 16.008765 10.007731 10.007609
O 17.164817 9.995776 9.988096
N 10.017182 13.004828 9.994541
H 10.932003 12.974474 9.611690
H 9.527831 13.851016 9.624979
H 9.516418 12.200354 9.622808
H 11.331619 12.984268 10.003329
C 12.389761 12.990904 10.007721
C 13.581226 13.000455 9.992493
H 14.655537 12.986239 9.986781
H 15.406259 13.006680 10.014433
Cl 16.625663 12.997658 9.991571
