21
Step 200 - MD Simulation
C 10.002501 9.989268 10.001366
H 10.665071 10.620248 10.515419
H 10.779712 9.296416 9.404577
H 9.210463 10.511975 9.380082
H 9.382857 9.360892 10.718909
O 13.017003 10.002561 10.011919
H 13.757114 10.573864 9.923531
H 12.177230 10.603108 9.974617
O 14.843949 10.015778 10.035373
C 16.007308 10.012131 10.019754
O 17.175184 9.991324 9.980648
N 10.037702 13.015131 9.986014
H 10.914460 12.935739 9.550193
H 9.494448 13.963068 9.598041
H 9.469434 12.212761 9.618687
H 11.346736 12.950213 10.039063
C 12.376170 12.974906 10.018880
C 13.556487 12.995693 9.993749
H 14.598981 12.968659 9.971397
H 15.497259 13.025294 10.031076
Cl 16.623056 13.000761 9.985355
