21
Step 40 - MD Simulation
C 9.996703 9.997492 10.007892
H 10.625366 10.630735 10.600891
H 10.652995 9.356029 9.378539
H 9.335876 10.594738 9.372301
H 9.381366 9.377406 10.639678
O 13.009865 9.995606 10.008442
H 13.756597 10.573486 9.991005
H 12.230471 10.589791 9.996594
O 14.846797 10.008680 10.014318
C 16.008779 10.006844 10.004973
O 17.162777 9.996822 9.989812
N 10.012249 13.002565 9.996850
H 10.932032 12.983275 9.621705
H 9.532897 13.829752 9.629162
H 9.524336 12.192925 9.621662
H 11.332120 12.992185 9.999232
C 12.392392 12.994625 10.005181
C 13.587404 13.001594 9.992183
H 14.662820 12.989912 9.989906
H 15.390862 13.002632 10.011012
Cl 16.626433 12.996953 9.992996
