21
Step 100 - MD Simulation
C 9.999015 9.994792 10.005880
H 10.635863 10.622574 10.564999
H 10.696094 9.337852 9.392133
H 9.293461 10.559980 9.379279
H 9.386016 9.375330 10.665046
O 13.012762 9.998609 10.009729
H 13.751234 10.569052 9.966052
H 12.216273 10.590453 9.988541
O 14.846182 10.011354 10.022176
C 16.008566 10.008644 10.010281
O 17.166984 9.994736 9.986377
N 10.022049 13.007114 9.992364
H 10.930402 12.965622 9.600180
H 9.521772 13.873997 9.619997
H 9.507430 12.206069 9.623165
H 11.332605 12.976360 10.008953
C 12.386943 12.987196 10.010287
C 13.575220 12.999326 9.992800
H 14.646064 12.982466 9.983589
H 15.423737 13.010773 10.017964
Cl 16.624960 12.998370 9.990144
