21
Step 180 - MD Simulation
C 10.001852 9.990481 10.002378
H 10.658039 10.619578 10.524352
H 10.761786 9.305808 9.403079
H 9.228340 10.520646 9.381013
H 9.384575 9.364870 10.706941
O 13.016219 10.001874 10.011471
H 13.754425 10.571679 9.932190
H 12.186583 10.599449 9.977479
O 14.844519 10.014902 10.032727
C 16.007490 10.011372 10.017774
O 17.173422 9.991998 9.981795
N 10.034650 13.013469 9.987182
H 10.918932 12.941786 9.561645
H 9.500800 13.943720 9.603095
H 9.478059 12.212932 9.620240
H 11.342626 12.955423 10.031588
C 12.378491 12.977355 10.017158
C 13.560077 12.996405 9.993573
H 14.610046 12.971790 9.974259
H 15.480728 13.022152 10.028136
Cl 16.623382 13.000283 9.986316
