21
Step 190 - MD Simulation
C 10.002180 9.989882 10.001878
H 10.661478 10.619840 10.519823
H 10.770673 9.301180 9.403893
H 9.219482 10.516256 9.380613
H 9.383778 9.362945 10.712849
O 13.016615 10.002224 10.011694
H 13.755676 10.572696 9.927873
H 12.182004 10.601209 9.976054
O 14.844242 10.015341 10.034050
C 16.007391 10.011750 10.018762
O 17.174295 9.991661 9.981222
N 10.036182 13.014296 9.986593
H 10.916776 12.938769 9.556017
H 9.497680 13.953297 9.600608
H 9.473809 12.212940 9.619505
H 11.344603 12.952813 10.035232
C 12.377341 12.976131 10.018019
C 13.558273 12.996048 9.993661
H 14.604506 12.970294 9.972897
H 15.488909 13.023679 10.029548
Cl 16.623215 13.000522 9.985836
