21
Step 90 - MD Simulation
C 9.998633 9.995270 10.006255
H 10.633755 10.623573 10.570658
H 10.688552 9.341223 9.390193
H 9.300902 10.565456 9.378456
H 9.385580 9.376031 10.660459
O 13.012298 9.998142 10.009514
H 13.751666 10.569407 9.970220
H 12.219122 10.589983 9.989897
O 14.846325 10.010909 10.020864
C 16.008651 10.008336 10.009386
O 17.166248 9.995082 9.986950
N 10.020434 13.006350 9.993075
H 10.931100 12.968574 9.604188
H 9.523908 13.866140 9.621742
H 9.510547 12.204355 9.623135
H 11.332103 12.978996 10.006915
C 12.387904 12.988430 10.009428
C 13.577201 12.999699 9.992699
H 14.649468 12.983737 9.984663
H 15.417679 13.009398 10.016771
Cl 16.625187 12.998132 9.990620
