21
Step 10 - MD Simulation
C 9.995571 9.998737 10.008653
H 10.622024 10.636706 10.620584
H 10.633381 9.363318 9.369898
H 9.355105 10.613903 9.366876
H 9.377211 9.376616 10.628929
O 13.008342 9.993921 10.007795
H 13.761766 10.577795 10.003383
H 12.234949 10.591436 10.000571
O 14.846898 10.007348 10.010388
C 16.008602 10.005963 10.002352
O 17.160871 9.997865 9.991516
N 10.007273 13.000302 9.999304
H 10.930462 12.992047 9.630228
H 9.536944 13.810206 9.632583
H 9.531200 12.183770 9.619736
H 11.334153 13.000124 9.996640
C 12.394845 12.998347 10.002658
C 13.593752 13.002741 9.991866
H 14.667962 12.993528 9.992976
H 15.377577 12.998603 10.007687
Cl 16.627261 12.996248 9.994420
