21
Step 150 - MD Simulation
C 10.000837 9.992199 10.003798
H 10.648619 10.619658 10.538656
H 10.736029 9.318865 9.399912
H 9.253937 10.534494 9.381401
H 9.386139 9.369809 10.690138
O 13.014985 10.000747 10.010812
H 13.751821 10.569542 9.945051
H 12.199162 10.594989 9.981688
O 14.845253 10.013574 10.028757
C 16.007886 10.010273 10.014866
O 17.170894 9.993013 9.983511
N 10.029990 13.011033 9.989027
H 10.924451 12.950789 9.577442
H 9.509468 13.916135 9.610053
H 9.490044 12.211781 9.621983
H 11.337648 12.963250 10.021759
C 12.381822 12.981039 10.014577
C 13.565609 12.997491 9.993295
H 14.625363 12.975942 9.977960
H 15.457598 13.017770 10.024148
Cl 16.623925 12.999565 9.987754
