21
Step 130 - MD Simulation
C 10.000133 9.993277 10.004671
H 10.643076 10.620421 10.548797
H 10.719621 9.326874 9.397176
H 9.270221 10.544328 9.380955
H 9.386495 9.372427 10.679660
O 13.014120 9.999932 10.010378
H 13.751034 10.568894 9.953500
H 12.206595 10.592739 9.984450
O 14.845668 10.012687 10.026119
C 16.008194 10.009596 10.012996
O 17.169281 9.993698 9.984656
N 10.026837 13.009445 9.990323
H 10.927328 12.956753 9.587078
H 9.514705 13.898705 9.614276
H 9.497377 12.210067 9.622729
H 11.335117 12.968485 10.016107
C 12.383934 12.983502 10.012860
C 13.569395 12.998219 9.993099
H 14.634381 12.978592 9.980275
H 15.443332 13.014937 10.021617
Cl 16.624319 12.999085 9.988710
