21
Step 160 - MD Simulation
C 10.001180 9.991639 10.003339
H 10.651607 10.619484 10.533769
H 10.744462 9.314651 9.401092
H 9.245560 10.529762 9.381410
H 9.385756 9.368298 10.695593
O 13.015404 10.001134 10.011030
H 13.752499 10.570097 9.940783
H 12.195157 10.596331 9.980293
O 14.845024 10.014017 10.030079
C 16.007740 10.010631 10.015825
O 17.171721 9.992673 9.982940
N 10.031554 13.011837 9.988399
H 10.922764 12.947795 9.572357
H 9.506688 13.925136 9.607821
H 9.486181 12.212356 9.621481
H 11.339147 12.960643 10.024850
C 12.380733 12.979811 10.015437
C 13.563744 12.997127 9.993391
H 14.620496 12.974589 9.976765
H 15.465077 13.019211 10.025448
Cl 16.623738 12.999805 9.987276
