21
Step 60 - MD Simulation
C 9.997477 9.996629 10.007287
H 10.628300 10.627441 10.588409
H 10.666789 9.350516 9.383597
H 9.322318 10.582650 9.375193
H 9.383456 9.377267 10.647557
O 13.010858 9.996659 10.008873
H 13.754071 10.571393 9.982696
H 12.226515 10.589425 9.993930
O 14.846653 10.009569 10.016936
C 16.008791 10.007434 10.006727
O 17.164122 9.996126 9.988669
N 10.015543 13.004072 9.995295
H 10.932194 12.977417 9.615195
H 9.529629 13.843734 9.626461
H 9.519173 12.198065 9.622512
H 11.331627 12.986910 10.001795
C 12.390659 12.992143 10.006872
C 13.583266 13.000834 9.992390
H 14.658204 12.987480 9.987828
H 15.400891 13.005331 10.013279
Cl 16.625912 12.997422 9.992048
