21
Step 80 - MD Simulation
C 9.998251 9.995734 10.006615
H 10.631793 10.624718 10.576444
H 10.681157 9.344457 9.388127
H 9.308190 10.571062 9.377502
H 9.385009 9.376586 10.656016
O 13.011826 9.997661 10.009300
H 13.752287 10.569914 9.974382
H 12.221776 10.589652 9.991245
O 14.846450 10.010462 10.019553
C 16.008718 10.008032 10.008495
O 17.165525 9.995429 9.987523
N 10.018812 13.005588 9.993801
H 10.931637 12.971525 9.608025
H 9.525923 13.858482 9.623407
H 9.513545 12.202453 9.623016
H 11.331771 12.981633 10.005038
C 12.388844 12.989666 10.008572
C 13.579203 13.000076 9.992596
H 14.652624 12.984994 9.985726
H 15.411855 13.008035 10.015598
Cl 16.625421 12.997895 9.991095
