21
Step 110 - MD Simulation
C 9.999394 9.994301 10.005491
H 10.638119 10.621719 10.559467
H 10.703793 9.334332 9.393947
H 9.285870 10.554639 9.379969
H 9.386314 9.374494 10.669773
O 13.013222 9.999065 10.009946
H 13.750986 10.568846 9.961875
H 12.213239 10.591070 9.987183
O 14.846025 10.011799 10.023490
C 16.008461 10.008956 10.011180
O 17.167734 9.994389 9.985804
N 10.023654 13.007884 9.991670
H 10.929538 12.962673 9.595996
H 9.519524 13.882041 9.618173
H 9.504201 12.207595 9.623109
H 11.333273 12.973728 10.011170
C 12.385962 12.985964 10.011144
C 13.573257 12.998955 9.992900
H 14.642413 12.981187 9.982500
H 15.430032 13.012156 10.019165
Cl 16.624739 12.998608 9.989667
