21
Step 20 - MD Simulation
C 9.995942 9.998326 10.008421
H 10.622998 10.634573 10.613884
H 10.639779 9.361016 9.372919
H 9.348841 10.607375 9.368827
H 9.378737 9.377021 10.632366
O 13.008853 9.994496 10.008010
H 13.759856 10.576200 9.999267
H 12.233648 10.590737 9.999245
O 14.846879 10.007793 10.011699
C 16.008680 10.006256 10.003225
O 17.161491 9.997516 9.990949
N 10.008937 13.001058 9.998471
H 10.931159 12.989125 9.627549
H 9.535708 13.816541 9.631528
H 9.529024 12.187021 9.620459
H 11.333293 12.997475 9.997337
C 12.394047 12.997107 10.003499
C 13.591615 13.002358 9.991974
H 14.666487 12.992324 9.991955
H 15.381770 12.999942 10.008790
Cl 16.626979 12.996483 9.993945
