21
Step 170 - MD Simulation
C 10.001518 9.991066 10.002866
H 10.654749 10.619459 10.529000
H 10.753048 9.310300 9.402147
H 9.237029 10.525146 9.381282
H 9.385235 9.366654 10.701192
O 13.015815 10.001510 10.011249
H 13.753364 10.570809 9.936494
H 12.190969 10.597820 9.978891
O 14.844779 10.014460 10.031403
C 16.007607 10.010997 10.016793
O 17.172564 9.992334 9.982368
N 10.033106 13.012650 9.987784
H 10.920927 12.944796 9.567090
H 9.503802 13.934333 9.605502
H 9.482189 12.212740 9.620896
H 11.340806 12.958034 10.028124
C 12.379623 12.978582 10.016297
C 13.561900 12.996765 9.993483
H 14.615381 12.973209 9.975534
H 15.472782 13.020670 10.026775
Cl 16.623556 13.000044 9.986797
