21
Step 120 - MD Simulation
C 9.999767 9.993796 10.005087
H 10.640523 10.621001 10.554066
H 10.711636 9.330669 9.395624
H 9.278123 10.549423 9.380530
H 9.386473 9.373528 10.674646
O 13.013675 9.999505 10.010162
H 13.750919 10.568791 9.957694
H 12.210015 10.591835 9.985817
O 14.845854 10.012243 10.024804
C 16.008336 10.009272 10.012083
O 17.168499 9.994042 9.985229
N 10.025250 13.008661 9.990991
H 10.928512 12.959716 9.591628
H 9.517167 13.890278 9.616265
H 9.500854 12.208926 9.622966
H 11.334107 12.971103 10.013549
C 12.384959 12.984732 10.012002
C 13.571315 12.998586 9.993000
H 14.638518 12.979896 9.981397
H 15.436563 13.013545 10.020379
Cl 16.624524 12.998846 9.989188
