21
Step 220 - MD Simulation
C 10.003116 9.988002 10.000308
H 10.672696 10.621481 10.506919
H 10.798237 9.286456 9.405594
H 9.191926 10.503750 9.378616
H 9.380627 9.356393 10.731479
O 13.017749 10.003196 10.012376
H 13.760545 10.576654 9.914762
H 12.167112 10.607326 9.971725
O 14.843317 10.016649 10.038020
C 16.007203 10.012903 10.021753
O 17.177011 9.990647 9.979497
N 10.040703 13.016821 9.984889
H 10.909394 12.929649 9.537979
H 9.487639 13.983189 9.592669
H 9.460288 12.211848 9.616799
H 11.351466 12.945039 10.047266
C 12.373770 12.972460 10.020608
C 13.552974 12.994992 9.993926
H 14.588577 12.965194 9.968211
H 15.513550 13.028784 10.034480
Cl 16.622759 13.001240 9.984393
