21
Step 140 - MD Simulation
C 10.000489 9.992745 10.004242
H 10.645775 10.619974 10.543664
H 10.727752 9.322938 9.398606
H 9.262160 10.539351 9.381246
H 9.386383 9.371187 10.684823
O 13.014557 10.000346 10.010596
H 13.751331 10.569143 9.949286
H 12.202975 10.593791 9.983074
O 14.845467 10.013131 10.027438
C 16.008040 10.009929 10.013923
O 17.170081 9.993355 9.984083
N 10.028418 13.010236 9.989668
H 10.925973 12.953777 9.582348
H 9.512140 13.907323 9.612207
H 9.493778 12.211019 9.622399
H 11.336299 12.965865 10.018845
C 12.382888 12.982270 10.013718
C 13.567494 12.997854 9.993197
H 14.629992 12.977276 9.979132
H 15.450347 13.016344 10.022876
Cl 16.624119 12.999325 9.988233
