21
Step 210 - MD Simulation
C 10.002813 9.988641 10.000844
H 10.668810 10.620794 10.511115
H 10.788900 9.291508 9.405146
H 9.201279 10.507807 9.379415
H 9.381807 9.358707 10.725118
O 13.017382 10.002884 10.012145
H 13.758736 10.575186 9.919164
H 12.172269 10.605147 9.973177
O 14.843639 10.016214 10.036696
C 16.007246 10.012515 10.020751
O 17.176089 9.990985 9.980073
N 10.039208 13.015972 9.985446
H 10.912000 12.932696 9.544183
H 9.491102 13.973031 9.595394
H 9.464922 12.212395 9.617787
H 11.349026 12.947618 10.043076
C 12.374980 12.973682 10.019743
C 13.554719 12.995341 9.993839
H 14.593662 12.966947 9.969824
H 15.505515 13.027017 10.032746
Cl 16.622905 13.001001 9.984875
